NAME :ulysses16.reord.tsp
TYPE : TSP
COMMENT : Odyssey of Ulysses (Groetschel/Padberg)
DIMENSION : 16
EDGE_WEIGHT_TYPE : GEO
DISPLAY_DATA_TYPE : COORD_DISPLAY
TOUR_SECTION
1 38.24 20.42
13 38.15 15.35
7 38.42 13.11
6 37.56 12.19
10 41.17 13.05
9 41.23 9.1
5 33.48 10.54
8 37.52 20.44
4 36.26 23.12
3 40.56 25.32
2 39.57 26.15
12 38.47 15.13
11 36.08 -5.21
1 38.24 20.42
-1